c --- [ banner ] -------------------------------------------------------------
c 
c CaDiCaL SAT Solver
c Copyright (c) 2016-2023 A. Biere, M. Fleury, N. Froleyks, K. Fazekas, F. Pollitt
c 
c Version 1.9.5
c g++ (Ubuntu 11.4.0-1ubuntu1~22.04) 11.4.0 -Wall -Wextra -O3 -DNDEBUG -static
c Thu Mar 7 06:16:21 CET 2024 Linux pc101447 6.5.0-17-generic x86_64
c 
c --- [ limit ] --------------------------------------------------------------
c 
c setting time limit to 3600 seconds real time (due to '-t 3600')
c 
c --- [ parsing input ] ------------------------------------------------------
c 
c reading DIMACS file from '/home/oliveras/SAT-comp-2023//9de6ddddf7fde06bf2efd955e2bd1a83-SCPC-700-84.cnf'
c opening file to read '/home/oliveras/SAT-comp-2023//9de6ddddf7fde06bf2efd955e2bd1a83-SCPC-700-84.cnf'
c found 'p cnf 700 27377' header
c parsed 27377 clauses in 0.02 seconds process time
c 
c --- [ options ] ------------------------------------------------------------
c 
c   --seed=1                       (different from default '0')
c 
c --- [ solving ] ------------------------------------------------------------
c 
c time measured in process time since initialization
c 
c  seconds  reductions  redundant  irredundant
c         MB    restarts       trail     variables
c          level   conflicts       glue      remaining
c 
c *  0.02  4  0 0   0    0    0  0% 0 27377 700 100%
c {  0.02  5  0 0   0    0    0  0% 0 27377 700 100%
c -  0.04  5 21 1   0  300  183 91% 19 27377 700 100%
c -  0.07  7 21 2   5  900  418 91% 19 27377 700 100%
c }  0.08  7 21 2   5 1001  467 91% 19 27377 700 100%
c [  0.08  7  0 2   5 1001  467  0% 0 27377 700 100%
c O  0.08  7 15 2   5 1002  468 85% 15 27377 700 100%
c -  0.12  7 25 3   5 1800  727 90% 20 27377 700 100%
c ]  0.19  7 30 3   6 3001 1714 90% 23 27377 700 100%
c {  0.19  7 21 3   6 3001 1714 91% 19 27377 700 100%
c -  0.19  7 21 4   6 3001 1206 91% 19 27377 700 100%
c F  0.19  7 21 4   6 3005 1210 91% 19 27377 700 100%
c -  0.27  7 21 5   9 4501 1497 90% 18 27377 700 100%
c #  0.38  7 20 5  18 6006 2489 90% 17 27377 700 100%
c -  0.40  7 20 6  22 6301 1658 90% 17 27377 700 100%
c }  0.43  7 20 6  24 7001 2127 90% 17 27377 700 100%
c [  0.43  7 30 6  24 7001 2127 90% 23 27377 700 100%
c -  0.51  7 27 7  25 8405 1915 90% 22 27377 700 100%
c I  0.58  7 25 7  26 10007 3039 90% 20 27377 700 100%
c s  0.68  8 58 7  27 10580 3429 90% 37 27377 700 100%
c 
c  seconds  reductions   redundant   irredundant
c         MB    restarts        trail      variables
c          level    conflicts       glue       remaining
c 
c s  0.74  8 58 7  27 10580 3366 90% 37 27377 700 100%
c ^  0.75  8 58 7  27 10580 3366 90% 37 27377 700 100%
c -  0.77  9 67 8  27 10806 2384 90% 42 27377 700 100%
c -  1.03 10 129 9  29 13508 3143 89% 76 27377 700 100%
c ]  1.17 10 148 9  29 15002 4536 89% 87 27377 700 100%
c {  1.17 10 20 9  29 15002 4536 90% 17 27377 700 100%
c B  1.20 10 20 9  31 15012 4546 90% 17 27377 700 100%
c -  1.28  9 20 10  59 16508 3404 90% 17 27377 700 100%
c -  1.45  7 20 11 103 19809 3019 90% 17 27377 700 100%
c W  1.53  7 20 11 115 21014 3657 90% 17 27377 700 100%
c -  1.65  9 20 12 204 23409 2928 91% 17 27377 700 100%
c -  1.84 11 20 13 254 27309 3185 91% 18 27377 700 100%
c F  1.88 11 20 13 265 28017 3650 91% 18 27377 700 100%
c }  2.06 11 20 13 293 31002 5443 91% 18 27377 700 100%
c [  2.06 11 148 13 293 31002 5443 89% 87 27377 700 100%
c -  2.08 11 141 14 293 31509 3385 89% 83 27377 700 100%
c s  2.12 11 139 14 293 31740 3436 89% 82 27377 700 100%
c w  2.14 11 139 14 293 31740 3431 89% 82 27377 700 100%
c s  2.18 11 139 14 293 31740 3423 89% 82 27377 700 100%
c ^  2.18 11 139 14 293 31740 3423 89% 82 27377 700 100%
c 
c  seconds   reductions    redundant   irredundant
c         MB      restarts        trail      variables
c           level     conflicts       glue       remaining
c 
c -  2.39 11 103 15 296 36009 3772 89% 63 27377 700 100%
c B  2.39 11 103 15 296 36019 3778 89% 63 27377 700 100%
c -  2.67 12 100 16 299 40809 5274 90% 61 27377 700 100%
c W  2.95 12 94 16 300 45020 9054 90% 58 27377 700 100%
c -  3.00 12 92 17 300 45913 5959 90% 57 27377 700 100%
c -  3.34 12 79 18 301 51315 5988 90% 50 27377 700 100%
c O  3.53 12 72 18 302 55021 8622 91% 46 27377 700 100%
c -  3.64 12 69 19 304 57018 5750 91% 45 27377 700 100%
c ]  3.95 12 62 19 308 63004 9979 91% 41 27377 700 100%
c {  3.95 12 20 19 308 63004 9979 91% 18 27377 700 100%
c -  3.95 12 20 20 308 63018 5901 91% 18 27377 700 100%
c s  4.00 12 20 20 343 63477 6015 91% 18 27377 700 100%
c s  4.08 12 20 20 343 63477 5971 91% 18 27377 700 100%
c ^  4.08 12 20 20 343 63477 5971 91% 18 27377 700 100%
c B  4.21 12 20 20 381 66022 7479 91% 18 27377 700 100%
c -  4.38 12 20 21 429 69318 5385 91% 18 27377 700 100%
c -  4.75 12 20 22 567 75919 5356 91% 18 27377 700 100%
c W  4.87 12 20 22 582 78026 6683 91% 18 27377 700 100%
c -  5.10 12 20 23 711 82819 5382 91% 18 27377 700 100%
c -  5.45 12 20 24 771 90020 5400 91% 18 27377 700 100%
c 
c  seconds  reductions    redundant   irredundant
c         MB     restarts        trail      variables
c          level     conflicts       glue       remaining
c 
c #  5.50 12 20 24 774 91030 5969 91% 18 27377 700 100%
c -  5.85 12 20 25 795 97521 6650 91% 18 27377 700 100%
c B  6.29 12 20 25 843 105031 11820 91% 17 27377 700 100%
c -  6.31 14 20 26 853 105323 7253 91% 17 27377 700 100%
c s  6.36 14 20 26 859 105794 7036 91% 17 27377 700 100%
c s  6.43 14 20 26 859 105794 6964 91% 17 27377 700 100%
c ^  6.43 14 20 26 859 105794 6964 91% 17 27377 700 100%
c -  6.82 14 20 27 896 113423 6419 91% 17 27377 700 100%
c W  7.18 14 20 27 969 120033 10325 91% 17 27377 700 100%
c -  7.27 14 20 28 994 121823 6710 91% 17 27377 700 100%
c }  7.54 14 20 28 1030 127009 10136 91% 17 27377 700 100%
c [  7.54 14 62 28 1030 127009 10136 91% 41 27377 700 100%
c -  7.72 14 59 29 1030 130524 7915 91% 39 27377 700 100%
c B  8.01 14 54 29 1034 136035 11744 91% 37 27377 700 100%
c -  8.21 14 54 30 1036 139527 9345 91% 36 27377 700 100%
c -  8.76 14 49 31 1038 148828 9453 91% 34 27377 700 100%
c W  9.00 14 47 31 1039 153037 12397 91% 33 27377 700 100%
c -  9.28  8 45 32 1039 158428 9436 91% 32 27377 700 100%
c s  9.32  9 44 32 1039 158689 9347 91% 32 27377 700 100%
c s  9.39  9 44 32 1039 158689 9284 91% 32 27377 700 100%
c 
c  seconds  reductions      redundant   irredundant
c         MB     restarts          trail      variables
c          level      conflicts        glue       remaining
c 
c ^  9.39  9 44 32 1039 158689 9284 91% 32 27377 700 100%
c -  9.88 11 42 33 1039 168328 9626 91% 30 27377 700 100%
c I 10.02 11 41 33 1041 171039 11857 91% 30 27377 700 100%
c - 10.60 16 55 34 1046 178528 11670 91% 37 27377 700 100%
c - 11.44 16 56 35 1052 189028 12587 91% 38 27377 700 100%
c B 11.52 16 56 35 1053 190041 13439 91% 38 27377 700 100%
c - 12.22 16 65 36 1054 199829 13424 90% 43 27377 700 100%
c W 13.11 16 72 36 1060 210047 22872 90% 46 27377 700 100%
c - 13.19 17 72 37 1060 210929 14205 90% 47 27377 700 100%
c s 14.14 17 73 37 1067 222163 23862 90% 47 27377 700 100%
c w 14.18 17 73 37 1067 222163 23851 90% 47 27377 700 100%
c s 14.24 17 73 37 1067 222163 23840 90% 47 27377 700 100%
c - 14.28 14 73 38 1067 222332 14347 90% 47 27377 700 100%
c O 15.03 14 71 38 1069 231048 21785 90% 47 27377 700 100%
c - 15.22 17 70 39 1069 234032 14053 90% 45 27377 700 100%
c - 15.92 17 64 40 1070 246034 13294 90% 42 27377 700 100%
c B 16.32 17 61 40 1071 253049 19079 90% 41 27377 700 100%
c ] 16.45 17 60 40 1071 255011 20673 90% 40 27377 700 100%
c { 16.46 17 20 40 1071 255011 20673 91% 17 27377 700 100%
c - 16.72 17 20 41 1115 258338 13102 91% 17 27377 700 100%
c 
c  seconds  reductions       redundant   irredundant
c         MB     restarts           trail      variables
c          level      conflicts         glue       remaining
c 
c - 17.43 17 20 42 1235 270938 11698 91% 17 27377 700 100%
c F 17.72 17 20 42 1285 276051 14953 91% 17 27377 700 100%
c - 18.12 17 20 43 1367 283840 11029 91% 17 27377 700 100%
c - 18.82 17 20 44 1446 297043 11066 91% 17 27377 700 100%
c B 18.98 17 20 44 1460 300052 12930 91% 17 27377 700 100%
c - 19.51 17 20 45 1627 310544 11237 91% 17 27377 700 100%
c - 20.26 17 20 46 1781 324349 11444 91% 17 27377 700 100%
c W 20.33 17 20 46 1787 325054 11972 91% 17 27377 700 100%
c - 21.07 17 20 47 1851 338449 12370 91% 17 27377 700 100%
c # 21.77 17 20 47 1916 351056 20840 91% 17 27377 700 100%
c - 21.88 17 20 48 1928 352850 13145 91% 17 27377 700 100%
c - 22.72 17 19 49 1951 367551 13644 91% 17 27377 700 100%
c B 23.31 17 19 49 1974 378059 20403 91% 17 27377 700 100%
c - 23.56 17 19 50 2060 382555 13348 91% 17 27377 700 100%
c - 24.41 17 19 51 2253 397856 12955 91% 17 27377 700 100%
c W 24.92 17 19 51 2319 406062 17838 91% 17 27377 700 100%
c - 25.31 17 19 52 2488 413456 12682 91% 17 27377 700 100%
c - 26.17 17 19 53 2699 429356 12803 91% 17 27377 700 100%
c F 26.47 17 19 53 2789 435067 16196 91% 17 27377 700 100%
c - 27.02 17 19 54 3057 445556 12729 91% 17 27377 700 100%
c 
c  seconds  reductions       redundant   irredundant
c         MB     restarts           trail      variables
c          level      conflicts         glue       remaining
c 
c - 27.91 17 19 55 3590 462057 12656 91% 17 27377 700 100%
c B 28.07 17 19 55 3714 465069 14326 91% 17 27377 700 100%
c - 28.76 17 19 56 4108 478857 12629 91% 17 27377 700 100%
c - 29.63 17 19 57 4470 495957 13465 91% 17 27377 700 100%
c W 29.68 17 19 57 4473 496071 13518 91% 17 27377 700 100%
c } 30.43 17 19 57 4691 511012 22439 91% 17 27377 700 100%
c [ 30.43 17 60 57 4691 511012 22439 90% 40 27377 700 100%
c - 30.56 17 59 58 4691 513358 14007 90% 40 27377 700 100%
c W 31.50 17 54 58 4691 528072 25019 90% 37 27377 700 100%
c - 31.67 17 53 59 4691 531058 17009 90% 36 27377 700 100%
c - 32.73 19 48 60 4697 549058 18751 90% 34 27377 700 100%
c I 33.50 19 45 60 4703 561073 27791 90% 32 27377 700 100%
c - 34.12 26 62 61 4705 567359 20557 90% 41 27377 700 100%
c - 36.09 31 91 62 4713 585961 22908 90% 58 27377 700 100%
c B 36.90 31 94 62 4719 595076 31149 90% 59 27377 700 100%
c - 37.66 27 96 63 4721 604864 23471 90% 60 27377 700 100%
c s 37.73 27 96 63 4721 604864 22440 90% 60 27377 700 100%
c w 37.85 27 96 63 4721 604864 22378 90% 60 27377 700 100%
c - 39.31 23 88 64 4722 624064 22858 90% 56 27377 700 100%
c W 39.82 23 86 64 4725 630077 27904 90% 55 27377 700 100%
c 
c  seconds  reductions       redundant   irredundant
c         MB     restarts           trail      variables
c          level      conflicts         glue       remaining
c 
c - 40.80 28 79 65 4733 643564 22443 90% 51 27377 700 100%
c - 42.13 28 69 66 4740 663364 21538 90% 46 27377 700 100%
c O 42.30 28 68 66 4742 666082 23651 90% 46 27377 700 100%
c - 43.41 28 62 67 4751 683466 21952 91% 42 27377 700 100%
c B 44.65 28 57 67 4753 703083 36704 91% 39 27377 700 100%
c - 44.71 30 56 68 4753 703866 22775 91% 39 27377 700 100%
c - 45.97 30 52 69 4754 724566 22548 91% 37 27377 700 100%
c W 47.18 30 48 69 4754 741084 34053 91% 35 27377 700 100%
c - 47.51 30 47 70 4755 745566 22285 91% 34 27377 700 100%
c - 48.87 30 43 71 4755 766868 23355 91% 32 27377 700 100%
c I 49.64 30 42 71 4755 780085 33073 91% 31 27377 700 100%
c - 50.49 31 66 72 4755 788469 24826 91% 43 27377 700 100%
c - 53.13 52 117 73 4755 810372 27439 90% 70 27377 700 100%
c B 54.21 52 136 73 4762 820086 36538 90% 80 27377 700 100%
c - 55.08 46 130 74 4769 832576 27308 90% 76 27377 700 100%
c - 56.87 46 111 75 4777 855078 25873 90% 66 27377 700 100%
c ] 57.38 46 106 75 4780 861088 30607 90% 64 27377 700 100%
c 1 57.38 46 106 75 4780 861088 30607 90% 64 27377 700 100%
c 
c --- [ result ] -------------------------------------------------------------
c 
s SATISFIABLE
v -1 2 -3 -4 -5 -6 -7 -8 9 -10 -11 -12 -13 -14 -15 -16 -17 18 -19 -20 -21 -22
v -23 -24 -25 -26 -27 -28 -29 -30 -31 -32 -33 -34 -35 -36 -37 -38 -39 -40 -41
v -42 43 -44 -45 -46 -47 -48 -49 -50 -51 -52 -53 -54 -55 -56 -57 -58 -59 -60
v -61 -62 -63 -64 -65 -66 -67 -68 -69 -70 -71 -72 -73 -74 -75 -76 -77 -78 -79
v -80 -81 -82 -83 -84 85 -86 -87 -88 -89 -90 -91 -92 -93 -94 -95 -96 -97 -98
v -99 -100 -101 -102 -103 -104 -105 -106 -107 -108 -109 -110 -111 -112 -113
v -114 -115 -116 -117 -118 -119 -120 -121 -122 -123 -124 -125 -126 -127 -128
v -129 -130 -131 132 -133 -134 135 -136 -137 -138 -139 -140 -141 -142 -143
v -144 -145 -146 -147 -148 -149 -150 -151 -152 -153 -154 -155 -156 -157 -158
v -159 -160 -161 -162 -163 -164 -165 -166 -167 -168 -169 -170 -171 -172 -173
v -174 -175 -176 -177 -178 179 -180 -181 -182 183 -184 -185 -186 -187 -188
v -189 -190 -191 -192 -193 194 -195 -196 -197 -198 -199 -200 -201 -202 -203
v -204 -205 -206 -207 -208 -209 -210 -211 -212 -213 -214 -215 -216 -217 -218
v -219 -220 -221 -222 -223 -224 -225 -226 -227 -228 -229 -230 -231 -232 -233
v -234 -235 -236 -237 -238 -239 -240 -241 -242 -243 -244 -245 -246 -247 -248
v 249 -250 -251 -252 -253 -254 -255 -256 -257 258 -259 -260 -261 -262 -263
v -264 -265 -266 -267 -268 -269 -270 -271 -272 -273 -274 -275 -276 -277 -278
v -279 -280 -281 -282 -283 -284 -285 -286 -287 -288 -289 -290 -291 -292 -293
v -294 -295 -296 -297 -298 -299 -300 -301 -302 -303 -304 -305 -306 -307 -308
v -309 -310 311 -312 -313 -314 -315 -316 -317 -318 -319 -320 -321 -322 -323
v -324 -325 -326 -327 -328 -329 330 -331 332 -333 -334 -335 -336 -337 -338
v -339 -340 -341 -342 -343 -344 -345 -346 347 -348 349 -350 -351 -352 -353
v -354 355 356 -357 358 -359 -360 -361 -362 -363 -364 -365 -366 -367 -368 -369
v -370 -371 -372 -373 -374 -375 -376 -377 -378 379 -380 -381 -382 -383 -384
v -385 -386 -387 -388 -389 -390 -391 -392 -393 -394 -395 -396 -397 -398 -399
v -400 -401 -402 -403 -404 -405 -406 -407 -408 -409 -410 -411 -412 -413 -414
v -415 -416 -417 -418 419 -420 -421 -422 -423 -424 -425 -426 -427 -428 -429
v -430 -431 -432 -433 -434 -435 -436 -437 -438 -439 440 -441 -442 -443 -444
v -445 -446 -447 -448 449 -450 -451 -452 -453 -454 -455 -456 -457 -458 -459
v -460 -461 -462 -463 -464 -465 -466 -467 -468 -469 -470 -471 -472 -473 -474
v -475 -476 -477 -478 -479 -480 -481 -482 -483 484 -485 486 -487 -488 -489
v -490 -491 -492 -493 -494 -495 -496 -497 -498 -499 -500 501 -502 -503 -504
v -505 -506 -507 -508 -509 -510 -511 -512 -513 -514 -515 516 -517 -518 -519
v -520 -521 -522 -523 -524 -525 -526 -527 -528 -529 -530 -531 -532 -533 -534
v -535 -536 -537 -538 -539 -540 -541 542 -543 -544 -545 -546 547 -548 -549
v -550 -551 -552 -553 -554 -555 -556 -557 -558 559 -560 -561 -562 -563 -564
v -565 -566 -567 568 -569 570 -571 572 -573 -574 -575 -576 -577 -578 -579 -580
v -581 -582 -583 -584 -585 586 -587 -588 -589 -590 -591 -592 -593 -594 595
v -596 -597 -598 -599 600 -601 -602 -603 -604 -605 -606 -607 -608 -609 -610
v -611 -612 -613 -614 -615 -616 -617 -618 -619 -620 -621 -622 -623 -624 -625
v -626 -627 -628 -629 -630 -631 -632 -633 634 -635 -636 -637 -638 -639 -640
v 641 -642 -643 -644 -645 646 -647 -648 -649 650 -651 -652 -653 -654 -655 -656
v -657 -658 -659 -660 -661 -662 663 -664 665 -666 667 -668 -669 -670 -671 -672
v -673 -674 -675 -676 -677 -678 -679 -680 681 -682 -683 -684 -685 -686 -687
v -688 -689 -690 -691 -692 -693 -694 -695 -696 -697 -698 -699 -700 0
c 
c --- [ run-time profiling ] -------------------------------------------------
c 
c process time taken by individual solving procedures
c (percentage relative to process time for solving)
c 
c        55.89   97.43% search
c        37.09   64.67% stable
c        18.11   31.57% unstable
c         1.47    2.57% simplify
c         0.68    1.19% walk
c         0.52    0.91% probe
c         0.41    0.71% subsume
c         0.25    0.44% vivify
c         0.06    0.10% ternary
c         0.03    0.06% elim
c         0.02    0.03% parse
c         0.00    0.01% lucky
c   =================================
c        57.36   99.97% solve
c 
c last line shows process time for solving
c (percentage relative to total process time)
c 
c --- [ statistics ] ---------------------------------------------------------
c 
c chronological:            180969        21.02 %  of conflicts
c conflicts:                861088     15011.84    per second
c decisions:               1033203     18012.42    per second
c learned:                  839139        97.45 %  per conflict
c learned_lits:          116664586       100.00 %  learned literals
c minimized:                     0         0.00 %  learned literals
c shrunken:               76320183        65.42 %  learned literals
c minishrunken:            2772262         2.38 %  learned literals
c otfs:                       1865         0.22 %  of conflict
c propagations:           39556628         0.69 M  per second
c reduced:                  595291        69.13 %  per conflict
c rephased:                     41     21002.15    interval
c restarts:                   4780       180.14    interval
c stabilizing:                   5        60.39 %  of conflicts
c subsumed:                 213212        24.61 %  of all clauses
c strengthened:              13551         1.56 %  of all clauses
c trail reuses:                  0         0.00 %  of incremental calls
c vivified:                    121         0.01 %  of all clauses
c walked:                       13     66237.54    interval
c 
c seconds are measured in process time for solving
c 
c --- [ resources ] ----------------------------------------------------------
c 
c total process time since initialization:        57.38    seconds
c total real time since initialization:           57.39    seconds
c maximum resident set size of process:           63.33    MB
c 
c --- [ shutting down ] ------------------------------------------------------
c 
c exit 10
